(set-logic QF_UF)
(declare-fun A0 () Bool)
(declare-fun A1 () Bool)
(declare-fun A2 () Bool)
(declare-fun A3 () Bool)
(declare-fun A4 () Bool)
(declare-fun A5 () Bool)
(declare-fun A6 () Bool)
(declare-fun A7 () Bool)
(declare-fun A8 () Bool)
(declare-fun A9 () Bool)
(declare-fun A10 () Bool)
(declare-fun A11 () Bool)
(declare-fun A12 () Bool)
(declare-fun A13 () Bool)
(declare-fun A14 () Bool)
(declare-fun A15 () Bool)
(declare-fun A16 () Bool)
(declare-fun A17 () Bool)
(declare-fun A18 () Bool)
(declare-fun A19 () Bool)
(declare-fun A20 () Bool)
(declare-fun A21 () Bool)
(declare-fun A22 () Bool)
(declare-fun A23 () Bool)
(declare-fun A24 () Bool)
(assert (let ((.def_0 (not A14))) (let ((.def_1 (not A11))) (let ((.def_2 (and .def_1 .def_0))) (let ((.def_3 (not .def_2))) (let ((.def_4 (not A4))) (let ((.def_5 (not A9))) (let ((.def_6 (and .def_5 .def_4))) (let ((.def_7 (or .def_6 .def_3))) (let ((.def_8 (and .def_5 A24))) (let ((.def_9 (not A17))) (let ((.def_10 (not A0))) (let ((.def_11 (= .def_10 .def_9))) (let ((.def_12 (or .def_11 .def_8))) (let ((.def_13 (not .def_12))) (let ((.def_14 (or .def_13 .def_7))) (let ((.def_15 (not .def_14))) (let ((.def_16 (and A20 A17))) (let ((.def_17 (not .def_16))) (let ((.def_18 (and A4 A14))) (let ((.def_19 (or .def_18 .def_17))) (let ((.def_20 (not .def_19))) (let ((.def_21 (not A7))) (let ((.def_22 (and A12 .def_21))) (let ((.def_23 (and A7 .def_4))) (let ((.def_24 (and .def_23 .def_22))) (let ((.def_25 (and .def_24 .def_20))) (let ((.def_26 (not .def_25))) (let ((.def_27 (or .def_26 .def_15))) (let ((.def_28 (not .def_27))) (let ((.def_29 (not A3))) (let ((.def_30 (or .def_0 .def_29))) (let ((.def_31 (not .def_30))) (let ((.def_32 (not A5))) (let ((.def_33 (and .def_21 .def_32))) (let ((.def_34 (and .def_33 .def_31))) (let ((.def_35 (not A19))) (let ((.def_36 (and A5 .def_35))) (let ((.def_37 (not .def_36))) (let ((.def_38 (and A2 A19))) (let ((.def_39 (not .def_38))) (let ((.def_40 (= .def_39 .def_37))) (let ((.def_41 (not .def_40))) (let ((.def_42 (and .def_41 .def_34))) (let ((.def_43 (or .def_0 .def_32))) (let ((.def_44 (or A3 A16))) (let ((.def_45 (or .def_44 .def_43))) (let ((.def_46 (not A20))) (let ((.def_47 (not A12))) (let ((.def_48 (or .def_47 .def_46))) (let ((.def_49 (not .def_48))) (let ((.def_50 (or A20 A8))) (let ((.def_51 (and .def_50 .def_49))) (let ((.def_52 (not .def_51))) (let ((.def_53 (or .def_52 .def_45))) (let ((.def_54 (and .def_53 .def_42))) (let ((.def_55 (not .def_54))) (let ((.def_56 (or .def_55 .def_28))) (let ((.def_57 (not .def_56))) (let ((.def_58 (and A3 .def_1))) (let ((.def_59 (or .def_5 A13))) (let ((.def_60 (not .def_59))) (let ((.def_61 (or .def_60 .def_58))) (let ((.def_62 (not .def_61))) (let ((.def_63 (and A22 .def_21))) (let ((.def_64 (not .def_63))) (let ((.def_65 (not A8))) (let ((.def_66 (not A24))) (let ((.def_67 (or .def_66 .def_65))) (let ((.def_68 (or .def_67 .def_64))) (let ((.def_69 (not .def_68))) (let ((.def_70 (or .def_69 .def_62))) (let ((.def_71 (not .def_70))) (let ((.def_72 (and A14 A10))) (let ((.def_73 (not A23))) (let ((.def_74 (not A2))) (let ((.def_75 (and .def_74 .def_73))) (let ((.def_76 (not .def_75))) (let ((.def_77 (= .def_76 .def_72))) (let ((.def_78 (not A18))) (let ((.def_79 (or .def_78 A0))) (let ((.def_80 (not A22))) (let ((.def_81 (and .def_80 .def_47))) (let ((.def_82 (and .def_81 .def_79))) (let ((.def_83 (not .def_82))) (let ((.def_84 (and .def_83 .def_77))) (let ((.def_85 (and .def_84 .def_71))) (let ((.def_86 (or A24 A14))) (let ((.def_87 (not .def_86))) (let ((.def_88 (or A3 A10))) (let ((.def_89 (and .def_88 .def_87))) (let ((.def_90 (= .def_73 A3))) (let ((.def_91 (not .def_90))) (let ((.def_92 (and .def_1 .def_9))) (let ((.def_93 (or .def_92 .def_91))) (let ((.def_94 (not .def_93))) (let ((.def_95 (and .def_94 .def_89))) (let ((.def_96 (and .def_9 A1))) (let ((.def_97 (not .def_96))) (let ((.def_98 (or A22 A12))) (let ((.def_99 (and .def_98 .def_97))) (let ((.def_100 (not .def_99))) (let ((.def_101 (not A10))) (let ((.def_102 (or .def_101 A23))) (let ((.def_103 (= A17 .def_9))) (let ((.def_104 (not .def_103))) (let ((.def_105 (= .def_104 .def_102))) (let ((.def_106 (not .def_105))) (let ((.def_107 (or .def_106 .def_100))) (let ((.def_108 (and .def_107 .def_95))) (let ((.def_109 (not .def_108))) (let ((.def_110 (= .def_109 .def_85))) (let ((.def_111 (= .def_110 .def_57))) (let ((.def_112 (or A16 A14))) (let ((.def_113 (not A21))) (let ((.def_114 (or .def_113 .def_9))) (let ((.def_115 (and .def_114 .def_112))) (let ((.def_116 (not .def_115))) (let ((.def_117 (= A17 A17))) (let ((.def_118 (not .def_117))) (let ((.def_119 (and A13 A16))) (let ((.def_120 (not .def_119))) (let ((.def_121 (or .def_120 .def_118))) (let ((.def_122 (or .def_121 .def_116))) (let ((.def_123 (not .def_122))) (let ((.def_124 (and .def_10 .def_1))) (let ((.def_125 (not A1))) (let ((.def_126 (or .def_47 .def_125))) (let ((.def_127 (and .def_126 .def_124))) (let ((.def_128 (and .def_10 .def_113))) (let ((.def_129 (and A10 .def_5))) (let ((.def_130 (not .def_129))) (let ((.def_131 (or .def_130 .def_128))) (let ((.def_132 (or .def_131 .def_127))) (let ((.def_133 (not .def_132))) (let ((.def_134 (or .def_133 .def_123))) (let ((.def_135 (not .def_134))) (let ((.def_136 (= A5 A22))) (let ((.def_137 (not .def_136))) (let ((.def_138 (or .def_1 .def_21))) (let ((.def_139 (and .def_138 .def_137))) (let ((.def_140 (or A23 A1))) (let ((.def_141 (= A13 A7))) (let ((.def_142 (not .def_141))) (let ((.def_143 (= .def_142 .def_140))) (let ((.def_144 (not .def_143))) (let ((.def_145 (or .def_144 .def_139))) (let ((.def_146 (and A9 .def_0))) (let ((.def_147 (or A15 .def_125))) (let ((.def_148 (not .def_147))) (let ((.def_149 (or .def_148 .def_146))) (let ((.def_150 (not .def_149))) (let ((.def_151 (not A13))) (let ((.def_152 (or .def_113 .def_151))) (let ((.def_153 (not .def_152))) (let ((.def_154 (and .def_29 .def_5))) (let ((.def_155 (not .def_154))) (let ((.def_156 (= .def_155 .def_153))) (let ((.def_157 (not .def_156))) (let ((.def_158 (or .def_157 .def_150))) (let ((.def_159 (and .def_158 .def_145))) (let ((.def_160 (and .def_159 .def_135))) (let ((.def_161 (or .def_101 A7))) (let ((.def_162 (not .def_161))) (let ((.def_163 (and .def_5 .def_21))) (let ((.def_164 (and .def_163 .def_162))) (let ((.def_165 (or A23 A11))) (let ((.def_166 (not .def_165))) (let ((.def_167 (or .def_32 .def_35))) (let ((.def_168 (or .def_167 .def_166))) (let ((.def_169 (not .def_168))) (let ((.def_170 (= .def_169 .def_164))) (let ((.def_171 (not .def_170))) (let ((.def_172 (= .def_80 .def_73))) (let ((.def_173 (= A16 A8))) (let ((.def_174 (or .def_173 .def_172))) (let ((.def_175 (not .def_174))) (let ((.def_176 (= A2 A2))) (let ((.def_177 (not A16))) (let ((.def_178 (and A0 .def_177))) (let ((.def_179 (not .def_178))) (let ((.def_180 (= .def_179 .def_176))) (let ((.def_181 (not .def_180))) (let ((.def_182 (and .def_181 .def_175))) (let ((.def_183 (not .def_182))) (let ((.def_184 (and .def_183 .def_171))) (let ((.def_185 (not .def_184))) (let ((.def_186 (= .def_10 A5))) (let ((.def_187 (not .def_186))) (let ((.def_188 (and .def_66 A1))) (let ((.def_189 (and .def_188 .def_187))) (let ((.def_190 (or A13 .def_5))) (let ((.def_191 (not .def_190))) (let ((.def_192 (not A15))) (let ((.def_193 (or A17 .def_192))) (let ((.def_194 (not .def_193))) (let ((.def_195 (and .def_194 .def_191))) (let ((.def_196 (or .def_195 .def_189))) (let ((.def_197 (not .def_196))) (let ((.def_198 (or A12 .def_65))) (let ((.def_199 (not .def_198))) (let ((.def_200 (and .def_80 .def_0))) (let ((.def_201 (not .def_200))) (let ((.def_202 (or .def_201 .def_199))) (let ((.def_203 (not .def_202))) (let ((.def_204 (and .def_65 .def_151))) (let ((.def_205 (not .def_204))) (let ((.def_206 (or A24 .def_73))) (let ((.def_207 (= .def_206 .def_205))) (let ((.def_208 (not .def_207))) (let ((.def_209 (or .def_208 .def_203))) (let ((.def_210 (and .def_209 .def_197))) (let ((.def_211 (and .def_210 .def_185))) (let ((.def_212 (or .def_211 .def_160))) (let ((.def_213 (and .def_212 .def_111))) (let ((.def_214 (not .def_213))) (let ((.def_215 (or .def_9 .def_74))) (let ((.def_216 (not .def_215))) (let ((.def_217 (or A24 A8))) (let ((.def_218 (and .def_217 .def_216))) (let ((.def_219 (and .def_46 A9))) (let ((.def_220 (= A23 A13))) (let ((.def_221 (not .def_220))) (let ((.def_222 (and .def_221 .def_219))) (let ((.def_223 (not .def_222))) (let ((.def_224 (and .def_223 .def_218))) (let ((.def_225 (not .def_224))) (let ((.def_226 (not A6))) (let ((.def_227 (and .def_226 .def_226))) (let ((.def_228 (not .def_227))) (let ((.def_229 (and A5 A23))) (let ((.def_230 (not .def_229))) (let ((.def_231 (= .def_230 .def_228))) (let ((.def_232 (and .def_73 A24))) (let ((.def_233 (not .def_232))) (let ((.def_234 (and A4 A23))) (let ((.def_235 (not .def_234))) (let ((.def_236 (and .def_235 .def_233))) (let ((.def_237 (not .def_236))) (let ((.def_238 (and .def_237 .def_231))) (let ((.def_239 (= .def_238 .def_225))) (let ((.def_240 (not .def_239))) (let ((.def_241 (and .def_9 A2))) (let ((.def_242 (not .def_241))) (let ((.def_243 (and .def_101 .def_66))) (let ((.def_244 (or .def_243 .def_242))) (let ((.def_245 (or .def_74 A1))) (let ((.def_246 (and .def_73 .def_66))) (let ((.def_247 (not .def_246))) (let ((.def_248 (or .def_247 .def_245))) (let ((.def_249 (not .def_248))) (let ((.def_250 (or .def_249 .def_244))) (let ((.def_251 (and .def_0 A8))) (let ((.def_252 (or A15 A16))) (let ((.def_253 (not .def_252))) (let ((.def_254 (and .def_253 .def_251))) (let ((.def_255 (not .def_254))) (let ((.def_256 (and A7 A19))) (let ((.def_257 (or A24 .def_192))) (let ((.def_258 (not .def_257))) (let ((.def_259 (and .def_258 .def_256))) (let ((.def_260 (or .def_259 .def_255))) (let ((.def_261 (not .def_260))) (let ((.def_262 (or .def_261 .def_250))) (let ((.def_263 (not .def_262))) (let ((.def_264 (or .def_263 .def_240))) (let ((.def_265 (or .def_151 .def_10))) (let ((.def_266 (or A24 A21))) (let ((.def_267 (not .def_266))) (let ((.def_268 (= .def_267 .def_265))) (let ((.def_269 (or A21 A2))) (let ((.def_270 (or .def_226 .def_9))) (let ((.def_271 (not .def_270))) (let ((.def_272 (or .def_271 .def_269))) (let ((.def_273 (or .def_272 .def_268))) (let ((.def_274 (and A14 A12))) (let ((.def_275 (not .def_274))) (let ((.def_276 (and A12 A13))) (let ((.def_277 (or .def_276 .def_275))) (let ((.def_278 (not .def_277))) (let ((.def_279 (or A12 .def_9))) (let ((.def_280 (not .def_279))) (let ((.def_281 (or A21 .def_4))) (let ((.def_282 (or .def_281 .def_280))) (let ((.def_283 (or .def_282 .def_278))) (let ((.def_284 (not .def_283))) (let ((.def_285 (or .def_284 .def_273))) (let ((.def_286 (or .def_65 .def_226))) (let ((.def_287 (and A20 .def_10))) (let ((.def_288 (or .def_287 .def_286))) (let ((.def_289 (and .def_80 A9))) (let ((.def_290 (or A24 .def_125))) (let ((.def_291 (and .def_290 .def_289))) (let ((.def_292 (or .def_291 .def_288))) (let ((.def_293 (not .def_292))) (let ((.def_294 (and A17 .def_9))) (let ((.def_295 (= .def_35 .def_21))) (let ((.def_296 (and .def_295 .def_294))) (let ((.def_297 (or .def_47 A5))) (let ((.def_298 (or .def_1 .def_9))) (let ((.def_299 (not .def_298))) (let ((.def_300 (= .def_299 .def_297))) (let ((.def_301 (not .def_300))) (let ((.def_302 (or .def_301 .def_296))) (let ((.def_303 (or .def_302 .def_293))) (let ((.def_304 (and .def_303 .def_285))) (let ((.def_305 (or .def_304 .def_264))) (let ((.def_306 (not .def_305))) (let ((.def_307 (and A14 A24))) (let ((.def_308 (or A24 A23))) (let ((.def_309 (not .def_308))) (let ((.def_310 (or .def_309 .def_307))) (let ((.def_311 (or .def_29 A18))) (let ((.def_312 (or A16 A6))) (let ((.def_313 (not .def_312))) (let ((.def_314 (= .def_313 .def_311))) (let ((.def_315 (and .def_314 .def_310))) (let ((.def_316 (not .def_315))) (let ((.def_317 (or .def_10 A24))) (let ((.def_318 (or A24 A10))) (let ((.def_319 (or .def_318 .def_317))) (let ((.def_320 (or A0 .def_125))) (let ((.def_321 (not .def_320))) (let ((.def_322 (and A23 A21))) (let ((.def_323 (or .def_322 .def_321))) (let ((.def_324 (not .def_323))) (let ((.def_325 (or .def_324 .def_319))) (let ((.def_326 (not .def_325))) (let ((.def_327 (= .def_326 .def_316))) (let ((.def_328 (and .def_151 .def_113))) (let ((.def_329 (not .def_328))) (let ((.def_330 (or .def_101 .def_46))) (let ((.def_331 (or .def_330 .def_329))) (let ((.def_332 (not .def_331))) (let ((.def_333 (or .def_29 A2))) (let ((.def_334 (or A20 .def_32))) (let ((.def_335 (or .def_334 .def_333))) (let ((.def_336 (not .def_335))) (let ((.def_337 (= .def_336 .def_332))) (let ((.def_338 (not .def_337))) (let ((.def_339 (or A14 A23))) (let ((.def_340 (or A10 A15))) (let ((.def_341 (and .def_340 .def_339))) (let ((.def_342 (not .def_341))) (let ((.def_343 (and A20 .def_192))) (let ((.def_344 (not .def_343))) (let ((.def_345 (and A21 .def_113))) (let ((.def_346 (not .def_345))) (let ((.def_347 (and .def_346 .def_344))) (let ((.def_348 (or .def_347 .def_342))) (let ((.def_349 (or .def_348 .def_338))) (let ((.def_350 (not .def_349))) (let ((.def_351 (and .def_350 .def_327))) (let ((.def_352 (or A22 .def_46))) (let ((.def_353 (and A1 A16))) (let ((.def_354 (not .def_353))) (let ((.def_355 (and .def_354 .def_352))) (let ((.def_356 (not .def_355))) (let ((.def_357 (or A22 A1))) (let ((.def_358 (not .def_357))) (let ((.def_359 (or .def_167 .def_358))) (let ((.def_360 (= .def_359 .def_356))) (let ((.def_361 (and .def_101 .def_4))) (let ((.def_362 (= .def_192 A14))) (let ((.def_363 (or .def_362 .def_361))) (let ((.def_364 (and .def_29 A23))) (let ((.def_365 (and A13 .def_46))) (let ((.def_366 (not .def_365))) (let ((.def_367 (and .def_366 .def_364))) (let ((.def_368 (or .def_367 .def_363))) (let ((.def_369 (or .def_368 .def_360))) (let ((.def_370 (and A11 A12))) (let ((.def_371 (or A18 A13))) (let ((.def_372 (not .def_371))) (let ((.def_373 (and .def_372 .def_370))) (let ((.def_374 (not .def_373))) (let ((.def_375 (= .def_125 .def_73))) (let ((.def_376 (and A5 .def_125))) (let ((.def_377 (not .def_376))) (let ((.def_378 (or .def_377 .def_375))) (let ((.def_379 (not .def_378))) (let ((.def_380 (or .def_379 .def_374))) (let ((.def_381 (and .def_66 A5))) (let ((.def_382 (or .def_80 A13))) (let ((.def_383 (or .def_382 .def_381))) (let ((.def_384 (not .def_383))) (let ((.def_385 (or A5 A4))) (let ((.def_386 (not .def_385))) (let ((.def_387 (and .def_73 A7))) (let ((.def_388 (not .def_387))) (let ((.def_389 (or .def_388 .def_386))) (let ((.def_390 (not .def_389))) (let ((.def_391 (or .def_390 .def_384))) (let ((.def_392 (not .def_391))) (let ((.def_393 (and .def_392 .def_380))) (let ((.def_394 (not .def_393))) (let ((.def_395 (and .def_394 .def_369))) (let ((.def_396 (or .def_395 .def_351))) (let ((.def_397 (and .def_396 .def_306))) (let ((.def_398 (not .def_397))) (let ((.def_399 (or .def_398 .def_214))) .def_399)))))))))))))))))))))))))))))))))))))))))))))))))))))))))))))))))))))))))))))))))))))))))))))))))))))))))))))))))))))))))))))))))))))))))))))))))))))))))))))))))))))))))))))))))))))))))))))))))))))))))))))))))))))))))))))))))))))))))))))))))))))))))))))))))))))))))))))))))))))))))))))))))))))))))))))))))))))))))))))))))))))))))))))))))))))))))))))))))))))))))))))))))))))))))))))))))))))))))))))))))
(check-sat)
